File : Instances/p66
Use 145 s

33300

1 0 0 0 1 0 0 0 0 0 0 0 0 1 1 0 0 0 0 0 0 1 0 0 1 1 0 0 1 0 
25 28 21 24 21 25 21 28 24 28 4 28 13 13 28 25 13 13 24 0 24 21 21 24 14 25 24 14 4 21 4 4 4 21 24 4 14 13 24 21 25 14 28 4 13 4 13 21 14 14 24 24 24 21 13 4 25 14 24 25 4 0 25 14 13 25 0 14 28 25 25 25 4 14 0 13 13 0 14 24 13 0 14 25 4 13 4 0 24 25 28 4 25 25 0 13 28 28 0 28 28 21 25 25 4 0 4 24 24 13 14 4 24 28 28 13 28 25 0 14 14 25 28 4 4 21 21 28 4 0 28 24 25 14 13 14 13 13 28 14 28 24 28 25 25 0 24 21 24 25 24 0 13 0 13 28 21 21 13 13 13 0 14 24 0 24 0 4 13 21 13 13 28 14 4 21 0 14 4 14 21 21 21 28 28 13 28 13 0 21 21 21 4 4 25 28 25 21 14 14 
